WARNING: for repeatability, setting FPU to use double precision
============================[ Problem Statistics ]=============================
|                                                                             |
|  Number of variables:            50                                         |
|  Number of clauses:             218                                         |
|  Parse time:                   0.00 s                                       |
|                                                                             |
============================[ Search Statistics ]==============================
| Conflicts |          ORIGINAL         |          LEARNT          | Progress |
|           |    Vars  Clauses Literals |    Limit  Clauses Lit/Cl |          |
===============================================================================
===============================================================================
restarts              : 1
conflicts             : 24             (112676 /sec)
decisions             : 35             (0.00 % random) (164319 /sec)
propagations          : 372            (1746479 /sec)
conflict literals     : 84             (14.29 % deleted)
Memory used           : 20.00 MB
CPU time              : 0.000213 s

SATISFIABLE
